p edge 39
e 0 35
e 0 38
e 1 11
e 1 22
e 1 34
e 2 5
e 2 8
e 2 22
e 2 31
e 2 32
e 2 34
e 3 7
e 3 20
e 4 18
e 4 34
e 4 38
e 5 15
e 5 31
e 5 34
e 6 10
e 6 14
e 6 15
e 6 25
e 6 33
e 7 20
e 7 30
e 8 19
e 8 23
e 8 31
e 8 32
e 8 33
e 9 12
e 9 27
e 9 28
e 10 26
e 10 33
e 11 22
e 11 29
e 11 36
e 11 37
e 12 21
e 12 24
e 12 28
e 12 29
e 13 17
e 13 26
e 13 27
e 13 28
e 14 25
e 14 30
e 15 16
e 15 18
e 15 25
e 15 31
e 15 33
e 15 34
e 16 18
e 16 20
e 16 25
e 17 26
e 18 20
e 18 34
e 18 35
e 18 38
e 19 21
e 19 23
e 19 29
e 19 32
e 19 36
e 20 25
e 20 30
e 20 35
e 21 23
e 21 24
e 21 29
e 22 32
e 22 34
e 22 36
e 23 24
e 23 28
e 23 33
e 24 28
e 25 30
e 26 28
e 26 33
e 27 28
e 28 33
e 29 36
e 29 37
e 31 33
e 32 36
e 35 38
c k 10
